NAME          
ROWS
 N  OBJ
 L  c1
 L  c2
 L  c3
 L  c4
COLUMNS
    MARKER    'MARKER'                 'INTORG'
    x[1]      c1        347
    x[1]      c2        222
    x[1]      c3        378
    x[1]      c4        874
    x[1]      OBJ       -589
    x[2]      c1        841
    x[2]      c2        937
    x[2]      c3        245
    x[2]      c4        851
    x[2]      OBJ       -332
    x[3]      c1        922
    x[3]      c2        653
    x[3]      c3        999
    x[3]      c4        209
    x[3]      OBJ       -792
    x[4]      c1        857
    x[4]      c2        694
    x[4]      c3        897
    x[4]      c4        104
    x[4]      OBJ       -399
    x[5]      c1        89
    x[5]      c2        735
    x[5]      c3        621
    x[5]      c4        393
    x[5]      OBJ       -952
    x[6]      c1        239
    x[6]      c2        504
    x[6]      c3        363
    x[6]      c4        804
    x[6]      OBJ       -769
    x[7]      c1        770
    x[7]      c2        258
    x[7]      c3        164
    x[7]      c4        125
    x[7]      OBJ       -130
    x[8]      c1        853
    x[8]      c2        852
    x[8]      c3        217
    x[8]      c4        434
    x[8]      OBJ       -720
    x[9]      c1        859
    x[9]      c2        600
    x[9]      c3        195
    x[9]      c4        206
    x[9]      OBJ       -414
    x[10]     c1        139
    x[10]     c2        549
    x[10]     c3        357
    x[10]     c4        625
    x[10]     OBJ       -767
    x[11]     c1        586
    x[11]     c2        629
    x[11]     c3        625
    x[11]     c4        125
    x[11]     OBJ       -662
    x[12]     c1        528
    x[12]     c2        396
    x[12]     c3        816
    x[12]     c4        954
    x[12]     OBJ       -110
    x[13]     c1        156
    x[13]     c2        505
    x[13]     c3        107
    x[13]     c4        340
    x[13]     OBJ       -331
    x[14]     c1        954
    x[14]     c2        485
    x[14]     c3        668
    x[14]     c4        602
    x[14]     OBJ       -56
    x[15]     c1        821
    x[15]     c2        605
    x[15]     c3        365
    x[15]     c4        587
    x[15]     OBJ       -98
    x[16]     c1        673
    x[16]     c2        564
    x[16]     c3        695
    x[16]     c4        711
    x[16]     OBJ       -133
    x[17]     c1        909
    x[17]     c2        487
    x[17]     c3        856
    x[17]     c4        99
    x[17]     OBJ       -849
    x[18]     c1        401
    x[18]     c2        817
    x[18]     c3        679
    x[18]     c4        246
    x[18]     OBJ       -820
    x[19]     c1        927
    x[19]     c2        428
    x[19]     c3        403
    x[19]     c4        543
    x[19]     OBJ       -496
    x[20]     c1        11
    x[20]     c2        603
    x[20]     c3        187
    x[20]     c4        251
    x[20]     OBJ       -256
    x[21]     c1        972
    x[21]     c2        53
    x[21]     c3        771
    x[21]     c4        669
    x[21]     OBJ       -373
    x[22]     c1        713
    x[22]     c2        249
    x[22]     c3        495
    x[22]     c4        729
    x[22]     OBJ       -453
    x[23]     c1        509
    x[23]     c2        254
    x[23]     c3        902
    x[23]     c4        646
    x[23]     OBJ       -573
    x[24]     c1        334
    x[24]     c2        465
    x[24]     c3        883
    x[24]     c4        307
    x[24]     OBJ       -638
    x[25]     c1        744
    x[25]     c2        367
    x[25]     c3        864
    x[25]     c4        588
    x[25]     OBJ       -574
    x[26]     c1        272
    x[26]     c2        421
    x[26]     c3        276
    x[26]     c4        717
    x[26]     OBJ       -784
    x[27]     c1        932
    x[27]     c2        303
    x[27]     c3        658
    x[27]     c4        623
    x[27]     OBJ       -357
    x[28]     c1        473
    x[28]     c2        375
    x[28]     c3        795
    x[28]     c4        508
    x[28]     OBJ       -219
    x[29]     c1        246
    x[29]     c2        825
    x[29]     c3        659
    x[29]     c4        280
    x[29]     OBJ       -465
    x[30]     c1        35
    x[30]     c2        710
    x[30]     c3        221
    x[30]     c4        879
    x[30]     OBJ       -637
RHS
    rhs       c1        8556
    rhs       c2        7772
    rhs       c3        8180
    rhs       c4        7514
RANGES
BOUNDS
 BV bounds    x[1]
 BV bounds    x[2]
 BV bounds    x[3]
 BV bounds    x[4]
 BV bounds    x[5]
 BV bounds    x[6]
 BV bounds    x[7]
 BV bounds    x[8]
 BV bounds    x[9]
 BV bounds    x[10]
 BV bounds    x[11]
 BV bounds    x[12]
 BV bounds    x[13]
 BV bounds    x[14]
 BV bounds    x[15]
 BV bounds    x[16]
 BV bounds    x[17]
 BV bounds    x[18]
 BV bounds    x[19]
 BV bounds    x[20]
 BV bounds    x[21]
 BV bounds    x[22]
 BV bounds    x[23]
 BV bounds    x[24]
 BV bounds    x[25]
 BV bounds    x[26]
 BV bounds    x[27]
 BV bounds    x[28]
 BV bounds    x[29]
 BV bounds    x[30]
ENDATA
